n = 50;
C = 6574;
w = [145,337,3,463,289,45,494,263,404,251,30,474,100,98,379,141,54,312,20,258,487,159,147,181,175,490,441,422,192,262,383,333,200,438,62,358,291,127,448,338,170,89,281,183,387,420,147,484,207,287];
p = [101,370,-34,493,312,67,461,292,394,210,32,426,109,91,359,151,4,294,26,249,505,158,178,197,182,464,472,452,193,298,390,355,153,450,29,334,337,82,464,341,172,127,303,218,381,424,154,524,188,244];
